
Gurobi 11.0.3 (linux64) logging started Wed Apr 15 18:39:44 2026

Set parameter LogFile to value "tree/results/dmtl/dmtl_depth-4_run-1/Full MIP/LogFile_FullModel.txt"
Gurobi Optimizer version 11.0.3 build v11.0.3rc0 (linux64 - "CentOS Linux 7 (Core)")

CPU model: Intel(R) Xeon(R) Platinum 8260 CPU @ 2.40GHz, instruction set [SSE2|AVX|AVX2|AVX512]
Thread count: 96 physical cores, 192 logical processors, using up to 32 threads

Optimize a model with 57993 rows, 35994 columns and 1876479 nonzeros
Model fingerprint: 0x2901e893
Model has 4288 general constraints
Variable types: 22524 continuous, 13470 integer (13470 binary)
Coefficient statistics:
  Matrix range     [2e-03, 1e+04]
  Objective range  [4e-03, 1e+04]
  Bounds range     [1e+00, 6e+02]
  RHS range        [1e-04, 1e+03]

User MIP start produced solution with objective 0.914179 (0.42s)
Loaded user MIP start with objective 0.914179

Presolve added 4272 rows and 17151 columns
Presolve time: 2.12s
Presolved: 62265 rows, 53145 columns, 1910732 nonzeros
Presolved model has 17152 SOS constraint(s)
Variable types: 22523 continuous, 30622 integer (30622 binary)

Deterministic concurrent LP optimizer: primal simplex, dual simplex, and barrier
Showing barrier log only...

Root relaxation presolved: 62265 rows, 53145 columns, 1910732 nonzeros

Root barrier log...

Ordering time: 0.08s

Barrier statistics:
 Dense cols : 525
 AA' NZ     : 1.928e+06
 Factor NZ  : 7.771e+06 (roughly 120 MB of memory)
 Factor Ops : 1.121e+09 (less than 1 second per iteration)
 Threads    : 30

                  Objective                Residual
Iter       Primal          Dual         Primal    Dual     Compl     Time
   0   9.60121470e+02  8.34369939e+08  3.40e+04 5.97e-02  7.74e+05     5s
   1   9.60302767e+01  1.33409671e+09  1.37e+04 6.71e+01  2.88e+05     6s
   2   1.24241751e+01  1.32602326e+09  1.54e+03 1.30e+01  4.16e+04     6s
   3   2.18900900e+00  5.47045303e+08  1.81e+02 1.25e+00  6.59e+03     6s
   4   7.23723575e-01  7.69901538e+07  1.97e+01 1.22e-01  7.61e+02     7s
   5   4.86776804e-01  1.03422878e+07  1.30e+00 1.35e-02  9.29e+01     7s
   6   4.62162311e-01  1.10936048e+06  6.42e-02 1.35e-03  9.51e+00     7s
   7   4.60638935e-01  1.12164752e+05  6.36e-03 1.36e-04  9.56e-01     7s
   8   4.69652837e-01  1.23203557e+04  6.31e-04 1.50e-05  1.05e-01     7s
   9   5.79422589e-01  1.63179449e+03  6.25e-05 1.96e-06  1.39e-02     8s
  10   9.24859722e-01  2.91415277e+02  6.19e-06 3.11e-07  2.47e-03     8s
  11   9.92485972e-01  3.03221375e+01  6.14e-07 3.11e-08  2.50e-04     8s
  12   9.99248597e-01  3.93224025e+00  6.14e-08 3.11e-09  2.50e-05     8s
  13   9.99924860e-01  1.29595780e+00  6.08e-09 3.11e-10  2.52e-06     9s
  14   9.99992486e-01  1.02959578e+00  6.09e-10 3.11e-11  2.52e-07     9s
  15   9.99999249e-01  1.00298717e+00  6.07e-11 3.12e-12  2.54e-08    10s
  16   9.99999925e-01  1.00029872e+00  6.31e-12 3.12e-13  2.54e-09    10s
  17   9.99999992e-01  1.00002987e+00  9.09e-13 3.12e-14  2.54e-10    10s
  18   9.99999999e-01  1.00000299e+00  4.55e-13 3.12e-15  2.54e-11    11s
  19   1.00000000e+00  1.00000030e+00  4.55e-13 3.12e-16  2.54e-12    11s
  20   1.00000000e+00  1.00000003e+00  4.55e-13 3.12e-17  2.54e-13    12s
  21   1.00000000e+00  1.00000000e+00  5.12e-13 3.12e-18  2.54e-14    12s

Barrier solved model in 21 iterations and 11.85 seconds (10.28 work units)
Optimal objective 1.00000000e+00


Root crossover log...

    2574 DPushes remaining with DInf 0.0000000e+00                12s

   21507 PPushes remaining with PInf 0.0000000e+00                12s
       0 PPushes remaining with PInf 0.0000000e+00                14s

  Push phase complete: Pinf 0.0000000e+00, Dinf 0.0000000e+00     14s


Root simplex log...

Iteration    Objective       Primal Inf.    Dual Inf.      Time
   21510    1.0000000e+00   0.000000e+00   0.000000e+00     14s
   21510    1.0000000e+00   0.000000e+00   0.000000e+00     15s
Concurrent spin time: 0.09s

Solved with barrier

Root relaxation: objective 1.000000e+00, 21510 iterations, 11.56 seconds (10.52 work units)
Total elapsed time = 65.72s (DegenMoves)

    Nodes    |    Current Node    |     Objective Bounds      |     Work
 Expl Unexpl |  Obj  Depth IntInf | Incumbent    BestBd   Gap | It/Node Time

     0     0    1.00000    0 3245    0.91418    1.00000  9.39%     -   66s
     0     2    1.00000    0 3245    0.91418    1.00000  9.39%     -  263s
     1     4    1.00000    1 2654    0.91418    1.00000  9.39% 22160  325s
     3     8    1.00000    2 1406    0.91418    1.00000  9.39% 15668  610s
     7    16    1.00000    3  725    0.91418    1.00000  9.39%  9136  806s
    15    32    1.00000    4 1475    0.91418    1.00000  9.39%  9956 1240s
    31    64    1.00000    5 1474    0.91418    1.00000  9.39%  7436 1289s
    63    96    1.00000    6 1473    0.91418    1.00000  9.39%  3990 1597s
    95   128    1.00000    7 1474    0.91418    1.00000  9.39%  3284 1959s
   127   160    1.00000    8 1473    0.91418    1.00000  9.39%  3619 2236s
   159   192    1.00000    9   81    0.91418    1.00000  9.39%  3047 2496s
   191   236    1.00000    9 1473    0.91418    1.00000  9.39%  2769 2916s
   235   322    1.00000   10  103    0.91418    1.00000  9.39%  2392 3600s
H  243   322                       0.9253731    1.00000  8.06%  2319 3600s

Explored 321 nodes (621795 simplex iterations) in 3600.77 seconds (7012.38 work units)
Thread count was 32 (of 192 available processors)

Solution count 2: 0.925373 0.914179 

Time limit reached
Best objective 9.253731343284e-01, best bound 1.000000000000e+00, gap 8.0645%

User-callback calls 1555054, time in user-callback 7.82 sec
